(set-logic QF_BV)
(declare-fun _substvar_3628_ () (_ BitVec 32))
(declare-fun _substvar_3665_ () (_ BitVec 32))
(declare-fun _substvar_833_ () (_ BitVec 8))
(declare-fun _substvar_1330_ () Bool)
(declare-fun _substvar_1871_ () Bool)
(declare-fun _substvar_3459_ () (_ BitVec 32))
(declare-fun _substvar_3540_ () Bool)
(declare-fun _substvar_1303_ () Bool)
(declare-fun _substvar_3539_ () Bool)
(declare-fun _substvar_3648_ () (_ BitVec 32))
(declare-fun _substvar_1830_ () Bool)
(declare-fun _substvar_830_ () (_ BitVec 8))
(declare-fun _substvar_1829_ () Bool)
(declare-fun _substvar_1316_ () Bool)
(declare-fun _substvar_828_ () (_ BitVec 8))
(declare-fun _substvar_3626_ () (_ BitVec 32))
(declare-fun _substvar_1302_ () Bool)
(declare-fun _substvar_3627_ () (_ BitVec 32))
(declare-fun _substvar_3458_ () (_ BitVec 32))
(declare-fun _substvar_1153_ () Bool)
(assert (let ((?v_38 (_ bv0 32)) (?v_34 ((_ zero_extend 24) _substvar_828_)) (?v_27 ((_ zero_extend 24) _substvar_830_)) (?v_20 ((_ zero_extend 24) _substvar_833_)) (?v_13 _substvar_3648_) (?v_5 (_ bv0 32))) (let ((?v_6 _substvar_3665_)) (let ((?v_8 (_ bv0 32))) (let ((?v_18 (_ bv0 32))) (let ((?v_25 (bvadd (_ bv0 32) ?v_20))) (let ((?v_32 (bvadd (bvadd ?v_25 (_ bv0 32)) ?v_27))) (let ((?v_1 (bvsub (bvadd (bvadd ?v_32 (_ bv0 32)) ?v_34) (_ bv4266151 32)))) (let ((?v_41 _substvar_3459_)) (let ((?v_42 _substvar_3626_) (?v_44 (bvadd ?v_1 (_ bv4266171 32))) (?v_43 (bvadd ?v_1 (_ bv4266170 32)))) (and true _substvar_1830_ _substvar_1303_ _substvar_1829_ (= ?v_44 ?v_42) true true _substvar_1330_ _substvar_3540_ true _substvar_3539_ true true _substvar_1302_ true true true true true true true true true true true true true true true true true true true true true true true true true true true true true true true true true true true true true true true true _substvar_1153_ (bvule ?v_42 ?v_43) true _substvar_1316_ _substvar_1871_)))))))))))
(check-sat)
(exit)
